c User generated cnf file
p cnf 9 31
4 -6 5 0 
-2 4 8 0 
3 5 -5 0 
4 -3 7 0 
3 -1 6 0 
7 -1 9 0 
2 7 -4 0 
8 9 -1 0 
4 8 -8 0 
8 1 -4 0 
-2 8 4 0 
5 -3 8 0 
-2 2 8 0 
9 1 -5 0 
-7 7 2 0 
7 7 -8 0 
8 9 -8 0 
-5 7 1 0 
-1 2 7 0 
5 -3 5 0 
-9 6 7 0 
-3 5 1 0 
-1 2 1 0 
1 8 -7 0 
1 1 -2 0 
1 -8 8 0 
2 2 -6 0 
2 1 -4 0 
1 -1 5 0 
-6 8 7 0 
7 6 -2 0 
